(set-logic HORN)
(declare-fun state (Bool Bool Bool Int (Array Int Int) (Array Int Int) Int Int Int) Bool)
(assert (forall ((|!pc[2]| Bool) (|!pc[1]| Bool) (|!pc[0]| Bool) (|!{N}| Int) (|!{b.2}| (Array Int Int)) (|!{a.1}| (Array Int Int)) (|!{i}| Int) (|arrlambda_0| Int) (|proph0| Int) (|!{a.1}.next| (Array Int Int)) (|!{b.2}.next| (Array Int Int)) (|nondet_char<0>| Int) (|%{b.2}#2| (Array Int Int)) (|proph0.next| Int) (|!{i}.next| Int) (|arrlambda_0.next| Int) (|nondet_int<0>| Int) (|%{b.2}#1| (Array Int Int)) (|!{N}.next| Int) (|%{a.1}#1| (Array Int Int)) (|!pc[1].next| Bool) (|!pc[0].next| Bool) (|!pc[2].next| Bool)) (=> (and (and (not |!pc[0]|) (not |!pc[1]|)) (not |!pc[2]|)) (state |!pc[2]| |!pc[1]| |!pc[0]| |!{N}| |!{b.2}| |!{a.1}| |!{i}| |arrlambda_0| |proph0|))))
(assert (forall ((|!pc[2]| Bool) (|!pc[1]| Bool) (|!pc[0]| Bool) (|!{N}| Int) (|!{b.2}| (Array Int Int)) (|!{a.1}| (Array Int Int)) (|!{i}| Int) (|arrlambda_0| Int) (|proph0| Int) (|!{a.1}.next| (Array Int Int)) (|!{b.2}.next| (Array Int Int)) (|nondet_char<0>| Int) (|%{b.2}#2| (Array Int Int)) (|proph0.next| Int) (|!{i}.next| Int) (|arrlambda_0.next| Int) (|nondet_int<0>| Int) (|%{b.2}#1| (Array Int Int)) (|!{N}.next| Int) (|%{a.1}#1| (Array Int Int)) (|!pc[1].next| Bool) (|!pc[0].next| Bool) (|!pc[2].next| Bool)) (=> (and (state |!pc[2]| |!pc[1]| |!pc[0]| |!{N}| |!{b.2}| |!{a.1}| |!{i}| |arrlambda_0| |proph0|) (let ((.def_19 (not |!pc[0]|))) (let ((.def_20 (not |!pc[1]|))) (let ((.def_22 (not |!pc[2]|))) (let ((.def_24 (select |!{a.1}| proph0))) (let ((.def_26 (select |!{a.1}.next| proph0))) (let ((.def_28 (= |!{a.1}| |!{a.1}.next|))) (let ((.def_29 (not .def_28))) (let ((.def_31 (select |!{b.2}| proph0))) (let ((.def_33 (select |!{b.2}.next| proph0))) (let ((.def_35 (= |!{b.2}| |!{b.2}.next|))) (let ((.def_36 (not .def_35))) (let ((.def_39 (store |!{b.2}| |!{i}| 20))) (let ((.def_40 (select .def_39 proph0))) (let ((.def_42 (= |!{i}| proph0))) (let ((.def_45 (store |!{a.1}| |!{i}| nondet_char<0>))) (let ((.def_46 (select .def_45 proph0))) (let ((.def_51 (select |%{b.2}#2| proph0.next))) (let ((.def_52 (select |!{b.2}.next| proph0.next))) (let ((.def_54 (= |!{b.2}.next| |%{b.2}#2|))) (let ((.def_55 (not .def_54))) (let ((.def_57 (= |!{b.2}| |%{b.2}#2|))) (let ((.def_59 (select |%{b.2}#2| proph0))) (let ((.def_63 (= .def_39 |%{b.2}#2|))) (let ((.def_64 (not .def_63))) (let ((.def_67 (= |!{a.1}.next| .def_45))) (let ((.def_68 (not .def_67))) (let ((.def_70 (select |%{b.2}#2| |!{i}|))) (let ((.def_71 (select .def_39 |!{i}|))) (let ((.def_75 (select .def_45 |!{i}|))) (let ((.def_103 (= |!{i}.next| 0))) (let ((.def_110 (not |!pc[1].next|))) (let ((.def_114 (not |!pc[2].next|))) (let ((.def_115 (and (and .def_110 |!pc[0].next|) .def_114))) (let ((.def_119 (= (select |!{b.2}| |!{i}|) 20))) (let ((.def_122 (= |!{N}| |!{N}.next|))) (let ((.def_124 (= |!{i}| |!{i}.next|))) (let ((.def_129 (= (select |!{a.1}| |!{i}|) 10))) (let ((.def_131 (<= |!{N}| |!{i}|))) (let ((.def_132 (not .def_131))) (let ((.def_137 (and .def_22 (and |!pc[1]| .def_19)))) (let ((.def_149 (= (+ |!{i}| (* (- 1) |!{i}.next|)) (- 1)))) (let ((.def_150 (and .def_35 .def_122))) (let ((.def_152 (and .def_28 (and .def_149 .def_150)))) (let ((.def_155 (not |!pc[0].next|))) (let ((.def_157 (and .def_114 (and |!pc[1].next| .def_155)))) (let ((.def_172 (and .def_22 (and |!pc[1]| |!pc[0]|)))) (let ((.def_179 (= nondet_char<0> 10))) (let ((.def_187 (and .def_22 (and |!pc[0]| .def_20)))) (let ((.def_201 (store |!{a.1}.next| |!{i}.next| nondet_char<0>))) (let ((.def_206 (store |!{b.2}.next| |!{i}.next| 20))) (let ((.def_207 (select .def_206 |!{i}.next|))) (let ((.def_218 (not (= |%{b.2}#2| .def_206)))) (let ((.def_228 (select .def_206 proph0.next))) (let ((.def_238 (= proph0.next |!{i}.next|))) (and (or (= .def_24 .def_26) .def_29) (and (or (= .def_31 .def_33) .def_36) (and (and (or (= .def_31 .def_40) .def_42) (and (and (or .def_42 (= .def_24 .def_46)) (and (or (= .def_51 .def_52) .def_55) (and (or (not .def_57) (= .def_31 .def_59)) (and (and (or (= .def_40 .def_59) .def_64) (and (or (= .def_26 .def_46) .def_68) (and (and (and (and (or .def_64 (= .def_70 .def_71)) (and (or .def_68 (= (select |!{a.1}.next| |!{i}|) .def_75)) (and (or .def_55 (= .def_70 (select |!{b.2}.next| |!{i}|))) (and (or .def_29 (= (select |!{a.1}| |!{i}.next|) (select |!{a.1}.next| |!{i}.next|))) (and (or .def_36 (= (select |!{b.2}| |!{i}.next|) (select |!{b.2}.next| |!{i}.next|))) (and (and (= .def_71 20) (and (and (= nondet_char<0> .def_75) (and (and (= arrlambda_0 arrlambda_0.next) (or (or (or (and (and (not (<= nondet_int<0> 0)) (and (and (and (= |!{b.2}.next| |%{b.2}#1|) (= nondet_int<0> |!{N}.next|)) .def_103) (= |!{a.1}.next| |%{a.1}#1|))) (and (and (and .def_19 .def_20) .def_22) .def_115)) (or (or (and (and (and (and .def_28 (and (and (and .def_35 (not .def_119)) .def_122) .def_124)) .def_129) .def_132) (and (and .def_114 (and |!pc[1].next| |!pc[0].next|)) .def_137)) (and (and .def_132 (and (or (not .def_129) (and .def_119 .def_129)) .def_152)) (and .def_137 .def_157))) (and (and .def_28 (and .def_124 (and .def_122 (and .def_35 .def_131)))) (and .def_137 (and |!pc[2].next| (and .def_110 .def_155)))))) (and .def_152 (and .def_157 .def_172))) (or (and (and .def_132 (and (and .def_67 (and .def_149 (and .def_54 .def_122))) (or (and .def_63 .def_179) (and .def_57 (not .def_179))))) (and .def_115 .def_187)) (and (and .def_131 (and .def_28 (and .def_103 .def_150))) (and .def_157 .def_187))))) (not .def_172))) (= nondet_char<0> (select .def_201 |!{i}.next|)))) (= .def_207 20))))))) (or (= .def_207 (select |%{b.2}#2| |!{i}.next|)) .def_218)) (= proph0 proph0.next)) (or .def_55 (= .def_33 .def_59))))) (or .def_218 (= .def_51 .def_228)))))) (or (= (select |!{a.1}.next| proph0.next) (select .def_201 proph0.next)) .def_238))) (or .def_238 (= .def_52 .def_228)))))))))))))))))))))))))))))))))))))))))))))))))))))))))))) (state |!pc[2].next| |!pc[1].next| |!pc[0].next| |!{N}.next| |!{b.2}.next| |!{a.1}.next| |!{i}.next| |arrlambda_0.next| |proph0.next|))))
(assert (forall ((|!pc[2]| Bool) (|!pc[1]| Bool) (|!pc[0]| Bool) (|!{N}| Int) (|!{b.2}| (Array Int Int)) (|!{a.1}| (Array Int Int)) (|!{i}| Int) (|arrlambda_0| Int) (|proph0| Int) (|!{a.1}.next| (Array Int Int)) (|!{b.2}.next| (Array Int Int)) (|nondet_char<0>| Int) (|%{b.2}#2| (Array Int Int)) (|proph0.next| Int) (|!{i}.next| Int) (|arrlambda_0.next| Int) (|nondet_int<0>| Int) (|%{b.2}#1| (Array Int Int)) (|!{N}.next| Int) (|%{a.1}#1| (Array Int Int)) (|!pc[1].next| Bool) (|!pc[0].next| Bool) (|!pc[2].next| Bool)) (=> (state |!pc[2]| |!pc[1]| |!pc[0]| |!{N}| |!{b.2}| |!{a.1}| |!{i}| |arrlambda_0| |proph0|) (or (not (and (not |!pc[2]|) (and |!pc[1]| |!pc[0]|))) (not (= |!{i}| proph0))))))
(check-sat)
